n_res = 4;
rc = [ 0, 0, 0, 0 ];
n_tasks = 30;
d = [ 10, 9, 5, 1, 1, 9, 5, 9, 4, 8, 7, 2, 3, 1, 8, 9, 8, 4, 5, 2, 10, 2, 4, 1, 6, 2, 4, 1, 2, 2 ];
rr = [| 0, 0, 0, 0, 0, 0, 0, 0, 0, 0, 0, 0, 0, 0, 0, 0, 0, 0, 0, 0, 0, 0, 0, 0, 0, 0, 0, 0, 0, 0
      | 0, 0, 0, 0, 0, 0, 0, 0, 0, 0, 0, 0, 0, 0, 0, 0, 0, 0, 0, 0, 0, 0, 0, 0, 0, 0, 0, 0, 0, 0
      | 0, 0, 0, 0, 0, 0, 0, 0, 0, 0, 0, 0, 0, 0, 0, 0, 0, 0, 0, 0, 0, 0, 0, 0, 0, 0, 0, 0, 0, 0
      | 0, 0, 0, 0, 0, 0, 0, 0, 0, 0, 0, 0, 0, 0, 0, 0, 0, 0, 0, 0, 0, 0, 0, 0, 0, 0, 0, 0, 0, 0 |];
suc = [ { 26 },
       { 8, 9 },
       { 4, 6, 7 },
       { 5, 14, 22 },
       { 13, 29 },
       { 10, 11 },
       { 17 },
       { 18 },
       { 12, 19 },
       { 13, 21, 24 },
       { 13, 15, 23 },
       { 25 },
       { 20 },
       { 18, 29 },
       { 16 },
       { 26 },
       { 26, 27 },
       { 30 },
       { 23 },
       { 25 },
       { 25 },
       { 28 },
       { 29 },
       { 30 },
       { 27, 28 },
       { 28 },
       { 30 },
       {  },
       {  },
       {  } ];
